17	4
19	14	16	17	
0	0	0	0	0	3	2	3	4	
1	10	1	5	8	3	6	15	17	
4	1	10	2	1	2	8	17	
5	7	7	3	4	1	5	
6	10	6	9	8	2	7	17	
50	3	10	4	3	3	10	12	17	
150	7	4	6	10	1	9	
25	5	8	7	7	3	9	16	17	
175	6	10	4	9	2	13	14	
250	9	1	3	10	1	11	
225	2	6	4	7	1	17	
225	9	8	7	6	1	17	
10	2	3	5	9	1	17	
8	2	4	9	5	2	17	17	
10	9	1	5	6	2	17	17	
7	10	7	4	5	1	17	
0	0	0	0	0	0	
